c nIsolatedPIs 0
c maxPI 32
p cnf 333 904
c gate 33 4 20 0
4 -33 0
20 -33 0
-4 -20 33 0
c gate 34 -4 -20 0
-4 -34 0
-20 -34 0
4 20 34 0
c gate 35 -33 -34 0
-33 -35 0
-34 -35 0
33 34 35 0
c gate 36 3 19 0
3 -36 0
19 -36 0
-3 -19 36 0
c gate 37 -3 19 0
-3 -37 0
19 -37 0
3 -19 37 0
c gate 38 3 -19 0
3 -38 0
-19 -38 0
-3 19 38 0
c gate 39 -37 -38 0
-37 -39 0
-38 -39 0
37 38 39 0
c gate 40 -2 18 0
-2 -40 0
18 -40 0
2 -18 40 0
c gate 41 2 -18 0
2 -41 0
-18 -41 0
-2 18 41 0
c gate 42 -40 -41 0
-40 -42 0
-41 -42 0
40 41 42 0
c gate 43 1 17 0
1 -43 0
17 -43 0
-1 -17 43 0
c gate 44 -42 43 0
-42 -44 0
43 -44 0
42 -43 44 0
c gate 45 2 18 0
2 -45 0
18 -45 0
-2 -18 45 0
c gate 46 -44 -45 0
-44 -46 0
-45 -46 0
44 45 46 0
c gate 47 -39 -46 0
-39 -47 0
-46 -47 0
39 46 47 0
c gate 48 -36 -47 0
-36 -48 0
-47 -48 0
36 47 48 0
c gate 49 35 48 0
35 -49 0
48 -49 0
-35 -48 49 0
c gate 50 -35 -48 0
-35 -50 0
-48 -50 0
35 48 50 0
c gate 51 -49 -50 0
-49 -51 0
-50 -51 0
49 50 51 0
c gate 52 18 -46 0
18 -52 0
-46 -52 0
-18 46 52 0
c gate 53 -36 -52 0
-36 -53 0
-52 -53 0
36 52 53 0
c gate 54 35 -53 0
35 -54 0
-53 -54 0
-35 53 54 0
c gate 55 -35 53 0
-35 -55 0
53 -55 0
35 -53 55 0
c gate 56 -54 -55 0
-54 -56 0
-55 -56 0
54 55 56 0
c gate 57 51 56 0
51 -57 0
56 -57 0
-51 -56 57 0
c gate 58 -51 -56 0
-51 -58 0
-56 -58 0
51 56 58 0
c gate 59 -57 -58 0
-57 -59 0
-58 -59 0
57 58 59 0
c gate 60 12 28 0
12 -60 0
28 -60 0
-12 -28 60 0
c gate 61 -12 28 0
-12 -61 0
28 -61 0
12 -28 61 0
c gate 62 12 -28 0
12 -62 0
-28 -62 0
-12 28 62 0
c gate 63 -61 -62 0
-61 -63 0
-62 -63 0
61 62 63 0
c gate 64 11 27 0
11 -64 0
27 -64 0
-11 -27 64 0
c gate 65 10 26 0
10 -65 0
26 -65 0
-10 -26 65 0
c gate 66 9 25 0
9 -66 0
25 -66 0
-9 -25 66 0
c gate 67 8 24 0
8 -67 0
24 -67 0
-8 -24 67 0
c gate 68 -7 -23 0
-7 -68 0
-23 -68 0
7 23 68 0
c gate 69 -6 -22 0
-6 -69 0
-22 -69 0
6 22 69 0
c gate 70 5 21 0
5 -70 0
21 -70 0
-5 -21 70 0
c gate 71 -33 -54 0
-33 -71 0
-54 -71 0
33 54 71 0
c gate 72 -70 71 0
-70 -72 0
71 -72 0
70 -71 72 0
c gate 73 -69 -72 0
-69 -73 0
-72 -73 0
69 72 73 0
c gate 74 7 -23 0
7 -74 0
-23 -74 0
-7 23 74 0
c gate 75 -7 23 0
-7 -75 0
23 -75 0
7 -23 75 0
c gate 76 -74 -75 0
-74 -76 0
-75 -76 0
74 75 76 0
c gate 77 -73 -76 0
-73 -77 0
-76 -77 0
73 76 77 0
c gate 78 -68 -77 0
-68 -78 0
-77 -78 0
68 77 78 0
c gate 79 -67 -78 0
-67 -79 0
-78 -79 0
67 78 79 0
c gate 80 -9 -25 0
-9 -80 0
-25 -80 0
9 25 80 0
c gate 81 -66 -80 0
-66 -81 0
-80 -81 0
66 80 81 0
c gate 82 -79 81 0
-79 -82 0
81 -82 0
79 -81 82 0
c gate 83 -66 -82 0
-66 -83 0
-82 -83 0
66 82 83 0
c gate 84 -10 -26 0
-10 -84 0
-26 -84 0
10 26 84 0
c gate 85 -65 -84 0
-65 -85 0
-84 -85 0
65 84 85 0
c gate 86 -83 85 0
-83 -86 0
85 -86 0
83 -85 86 0
c gate 87 -65 -86 0
-65 -87 0
-86 -87 0
65 86 87 0
c gate 88 -11 -27 0
-11 -88 0
-27 -88 0
11 27 88 0
c gate 89 -64 -88 0
-64 -89 0
-88 -89 0
64 88 89 0
c gate 90 -87 89 0
-87 -90 0
89 -90 0
87 -89 90 0
c gate 91 -64 -90 0
-64 -91 0
-90 -91 0
64 90 91 0
c gate 92 -63 -91 0
-63 -92 0
-91 -92 0
63 91 92 0
c gate 93 -60 -92 0
-60 -93 0
-92 -93 0
60 92 93 0
c gate 94 16 -32 0
16 -94 0
-32 -94 0
-16 32 94 0
c gate 95 -16 32 0
-16 -95 0
32 -95 0
16 -32 95 0
c gate 96 -94 -95 0
-94 -96 0
-95 -96 0
94 95 96 0
c gate 97 15 31 0
15 -97 0
31 -97 0
-15 -31 97 0
c gate 98 -15 -31 0
-15 -98 0
-31 -98 0
15 31 98 0
c gate 99 14 30 0
14 -99 0
30 -99 0
-14 -30 99 0
c gate 100 -13 -29 0
-13 -100 0
-29 -100 0
13 29 100 0
c gate 101 -14 -30 0
-14 -101 0
-30 -101 0
14 30 101 0
c gate 102 -100 -101 0
-100 -102 0
-101 -102 0
100 101 102 0
c gate 103 -12 -28 0
-12 -103 0
-28 -103 0
12 28 103 0
c gate 104 7 23 0
7 -104 0
23 -104 0
-7 -23 104 0
c gate 105 6 22 0
6 -105 0
22 -105 0
-6 -22 105 0
c gate 106 -5 21 0
-5 -106 0
21 -106 0
5 -21 106 0
c gate 107 5 -21 0
5 -107 0
-21 -107 0
-5 21 107 0
c gate 108 -106 -107 0
-106 -108 0
-107 -108 0
106 107 108 0
c gate 109 -34 -49 0
-34 -109 0
-49 -109 0
34 49 109 0
c gate 110 -108 109 0
-108 -110 0
109 -110 0
108 -109 110 0
c gate 111 -70 -110 0
-70 -111 0
-110 -111 0
70 110 111 0
c gate 112 6 -22 0
6 -112 0
-22 -112 0
-6 22 112 0
c gate 113 -6 22 0
-6 -113 0
22 -113 0
6 -22 113 0
c gate 114 -112 -113 0
-112 -114 0
-113 -114 0
112 113 114 0
c gate 115 -111 -114 0
-111 -115 0
-114 -115 0
111 114 115 0
c gate 116 -105 -115 0
-105 -116 0
-115 -116 0
105 115 116 0
c gate 117 -76 -116 0
-76 -117 0
-116 -117 0
76 116 117 0
c gate 118 -104 -117 0
-104 -118 0
-117 -118 0
104 117 118 0
c gate 119 -8 24 0
-8 -119 0
24 -119 0
8 -24 119 0
c gate 120 8 -24 0
8 -120 0
-24 -120 0
-8 24 120 0
c gate 121 -119 -120 0
-119 -121 0
-120 -121 0
119 120 121 0
c gate 122 -118 -121 0
-118 -122 0
-121 -122 0
118 121 122 0
c gate 123 -67 -122 0
-67 -123 0
-122 -123 0
67 122 123 0
c gate 124 81 123 0
81 -124 0
123 -124 0
-81 -123 124 0
c gate 125 -80 -124 0
-80 -125 0
-124 -125 0
80 124 125 0
c gate 126 85 -125 0
85 -126 0
-125 -126 0
-85 125 126 0
c gate 127 -84 -88 0
-84 -127 0
-88 -127 0
84 88 127 0
c gate 128 -126 127 0
-126 -128 0
127 -128 0
126 -127 128 0
c gate 129 -64 -128 0
-64 -129 0
-128 -129 0
64 128 129 0
c gate 130 -103 -129 0
-103 -130 0
-129 -130 0
103 129 130 0
c gate 131 13 29 0
13 -131 0
29 -131 0
-13 -29 131 0
c gate 132 -60 -131 0
-60 -132 0
-131 -132 0
60 131 132 0
c gate 133 -130 132 0
-130 -133 0
132 -133 0
130 -132 133 0
c gate 134 102 -133 0
102 -134 0
-133 -134 0
-102 133 134 0
c gate 135 -99 -134 0
-99 -135 0
-134 -135 0
99 134 135 0
c gate 136 -98 -135 0
-98 -136 0
-135 -136 0
98 135 136 0
c gate 137 -97 -136 0
-97 -137 0
-136 -137 0
97 136 137 0
c gate 138 -96 137 0
-96 -138 0
137 -138 0
96 -137 138 0
c gate 139 96 -137 0
96 -139 0
-137 -139 0
-96 137 139 0
c gate 140 -138 -139 0
-138 -140 0
-139 -140 0
138 139 140 0
c gate 141 93 -131 0
93 -141 0
-131 -141 0
-93 131 141 0
c gate 142 102 -141 0
102 -142 0
-141 -142 0
-102 141 142 0
c gate 143 -99 -142 0
-99 -143 0
-142 -143 0
99 142 143 0
c gate 144 -98 -143 0
-98 -144 0
-143 -144 0
98 143 144 0
c gate 145 -97 -144 0
-97 -145 0
-144 -145 0
97 144 145 0
c gate 146 96 -145 0
96 -146 0
-145 -146 0
-96 145 146 0
c gate 147 -96 145 0
-96 -147 0
145 -147 0
96 -145 147 0
c gate 148 -146 -147 0
-146 -148 0
-147 -148 0
146 147 148 0
c gate 149 140 -148 0
140 -149 0
-148 -149 0
-140 148 149 0
c gate 150 93 149 0
93 -150 0
149 -150 0
-93 -149 150 0
c gate 151 79 -81 0
79 -151 0
-81 -151 0
-79 81 151 0
c gate 152 -82 -151 0
-82 -152 0
-151 -152 0
82 151 152 0
c gate 153 -81 -123 0
-81 -153 0
-123 -153 0
81 123 153 0
c gate 154 -124 -153 0
-124 -154 0
-153 -154 0
124 153 154 0
c gate 155 152 154 0
152 -155 0
154 -155 0
-152 -154 155 0
c gate 156 -152 -154 0
-152 -156 0
-154 -156 0
152 154 156 0
c gate 157 -155 -156 0
-155 -157 0
-156 -157 0
155 156 157 0
c gate 158 118 121 0
118 -158 0
121 -158 0
-118 -121 158 0
c gate 159 -122 -158 0
-122 -159 0
-158 -159 0
122 158 159 0
c gate 160 78 121 0
78 -160 0
121 -160 0
-78 -121 160 0
c gate 161 -78 -121 0
-78 -161 0
-121 -161 0
78 121 161 0
c gate 162 -160 -161 0
-160 -162 0
-161 -162 0
160 161 162 0
c gate 163 -159 -162 0
-159 -163 0
-162 -163 0
159 162 163 0
c gate 164 159 162 0
159 -164 0
162 -164 0
-159 -162 164 0
c gate 165 73 76 0
73 -165 0
76 -165 0
-73 -76 165 0
c gate 166 -77 -165 0
-77 -166 0
-165 -166 0
77 165 166 0
c gate 167 76 116 0
76 -167 0
116 -167 0
-76 -116 167 0
c gate 168 -117 -167 0
-117 -168 0
-167 -168 0
117 167 168 0
c gate 169 -166 -168 0
-166 -169 0
-168 -169 0
166 168 169 0
c gate 170 166 168 0
166 -170 0
168 -170 0
-166 -168 170 0
c gate 171 111 114 0
111 -171 0
114 -171 0
-111 -114 171 0
c gate 172 -115 -171 0
-115 -172 0
-171 -172 0
115 171 172 0
c gate 173 72 114 0
72 -173 0
114 -173 0
-72 -114 173 0
c gate 174 -72 -114 0
-72 -174 0
-114 -174 0
72 114 174 0
c gate 175 -173 -174 0
-173 -175 0
-174 -175 0
173 174 175 0
c gate 176 -172 175 0
-172 -176 0
175 -176 0
172 -175 176 0
c gate 177 108 -109 0
108 -177 0
-109 -177 0
-108 109 177 0
c gate 178 -110 -177 0
-110 -178 0
-177 -178 0
110 177 178 0
c gate 179 71 -108 0
71 -179 0
-108 -179 0
-71 108 179 0
c gate 180 -71 108 0
-71 -180 0
108 -180 0
71 -108 180 0
c gate 181 -179 -180 0
-179 -181 0
-180 -181 0
179 180 181 0
c gate 182 178 181 0
178 -182 0
181 -182 0
-178 -181 182 0
c gate 183 172 -175 0
172 -183 0
-175 -183 0
-172 175 183 0
c gate 184 -176 -183 0
-176 -184 0
-183 -184 0
176 183 184 0
c gate 185 -182 184 0
-182 -185 0
184 -185 0
182 -184 185 0
c gate 186 -176 -185 0
-176 -186 0
-185 -186 0
176 185 186 0
c gate 187 -170 -186 0
-170 -187 0
-186 -187 0
170 186 187 0
c gate 188 18 -39 0
18 -188 0
-39 -188 0
-18 39 188 0
c gate 189 -46 -188 0
-46 -189 0
-188 -189 0
46 188 189 0
c gate 190 -178 -181 0
-178 -190 0
-181 -190 0
178 181 190 0
c gate 191 -2 47 0
-2 -191 0
47 -191 0
2 -47 191 0
c gate 192 -57 -191 0
-57 -192 0
-191 -192 0
57 191 192 0
c gate 193 -190 192 0
-190 -193 0
192 -193 0
190 -192 193 0
c gate 194 185 193 0
185 -194 0
193 -194 0
-185 -193 194 0
c gate 195 189 194 0
189 -195 0
194 -195 0
-189 -194 195 0
c gate 196 187 -195 0
187 -196 0
-195 -196 0
-187 195 196 0
c gate 197 -169 -196 0
-169 -197 0
-196 -197 0
169 196 197 0
c gate 198 -164 -197 0
-164 -198 0
-197 -198 0
164 197 198 0
c gate 199 -163 -198 0
-163 -199 0
-198 -199 0
163 198 199 0
c gate 200 157 -199 0
157 -200 0
-199 -200 0
-157 199 200 0
c gate 201 -91 -129 0
-91 -201 0
-129 -201 0
91 129 201 0
c gate 202 63 128 0
63 -202 0
128 -202 0
-63 -128 202 0
c gate 203 -92 -202 0
-92 -203 0
-202 -203 0
92 202 203 0
c gate 204 -201 -203 0
-201 -204 0
-203 -204 0
201 203 204 0
c gate 205 87 -89 0
87 -205 0
-89 -205 0
-87 89 205 0
c gate 206 83 -85 0
83 -206 0
-85 -206 0
-83 85 206 0
c gate 207 -86 -206 0
-86 -207 0
-206 -207 0
86 206 207 0
c gate 208 -85 125 0
-85 -208 0
125 -208 0
85 -125 208 0
c gate 209 -126 -208 0
-126 -209 0
-208 -209 0
126 208 209 0
c gate 210 207 209 0
207 -210 0
209 -210 0
-207 -209 210 0
c gate 211 -207 -209 0
-207 -211 0
-209 -211 0
207 209 211 0
c gate 212 -210 -211 0
-210 -212 0
-211 -212 0
210 211 212 0
c gate 213 85 -212 0
85 -213 0
-212 -213 0
-85 212 213 0
c gate 214 -205 213 0
-205 -214 0
213 -214 0
205 -213 214 0
c gate 215 156 -210 0
156 -215 0
-210 -215 0
-156 210 215 0
c gate 216 -211 -215 0
-211 -216 0
-215 -216 0
211 215 216 0
c gate 217 -213 216 0
-213 -217 0
216 -217 0
213 -216 217 0
c gate 218 -214 -217 0
-214 -218 0
-217 -218 0
214 217 218 0
c gate 219 -204 -218 0
-204 -219 0
-218 -219 0
204 218 219 0
c gate 220 -157 219 0
-157 -220 0
219 -220 0
157 -219 220 0
c gate 221 -63 89 0
-63 -221 0
89 -221 0
63 -89 221 0
c gate 222 213 221 0
213 -222 0
221 -222 0
-213 -221 222 0
c gate 223 -220 -222 0
-220 -223 0
-222 -223 0
220 222 223 0
c gate 224 -140 148 0
-140 -224 0
148 -224 0
140 -148 224 0
c gate 225 -14 30 0
-14 -225 0
30 -225 0
14 -30 225 0
c gate 226 14 -30 0
14 -226 0
-30 -226 0
-14 30 226 0
c gate 227 -225 -226 0
-225 -227 0
-226 -227 0
225 226 227 0
c gate 228 -97 -98 0
-97 -228 0
-98 -228 0
97 98 228 0
c gate 229 -13 29 0
-13 -229 0
29 -229 0
13 -29 229 0
c gate 230 13 -29 0
13 -230 0
-29 -230 0
-13 29 230 0
c gate 231 -229 -230 0
-229 -231 0
-230 -231 0
229 230 231 0
c gate 232 228 -231 0
228 -232 0
-231 -232 0
-228 231 232 0
c gate 233 -227 232 0
-227 -233 0
232 -233 0
227 -232 233 0
c gate 234 -128 -233 0
-128 -234 0
-233 -234 0
128 233 234 0
c gate 235 -90 233 0
-90 -235 0
233 -235 0
90 -233 235 0
c gate 236 -63 -235 0
-63 -236 0
-235 -236 0
63 235 236 0
c gate 237 -234 236 0
-234 -237 0
236 -237 0
234 -236 237 0
c gate 238 -201 237 0
-201 -238 0
237 -238 0
201 -237 238 0
c gate 239 -149 238 0
-149 -239 0
238 -239 0
149 -238 239 0
c gate 240 -224 -239 0
-224 -240 0
-239 -240 0
224 239 240 0
c gate 241 -223 240 0
-223 -241 0
240 -241 0
223 -240 241 0
c gate 242 -200 -241 0
-200 -242 0
-241 -242 0
200 241 242 0
c gate 243 138 144 0
138 -243 0
144 -243 0
-138 -144 243 0
c gate 244 -242 -243 0
-242 -244 0
-243 -244 0
242 243 244 0
c gate 245 -150 -244 0
-150 -245 0
-244 -245 0
150 244 245 0
c gate 246 4 -20 0
4 -246 0
-20 -246 0
-4 20 246 0
c gate 247 -1 17 0
-1 -247 0
17 -247 0
1 -17 247 0
c gate 248 -40 -247 0
-40 -248 0
-247 -248 0
40 247 248 0
c gate 249 -38 -41 0
-38 -249 0
-41 -249 0
38 41 249 0
c gate 250 -248 249 0
-248 -250 0
249 -250 0
248 -249 250 0
c gate 251 -37 -250 0
-37 -251 0
-250 -251 0
37 250 251 0
c gate 252 246 -251 0
246 -252 0
-251 -252 0
-246 251 252 0
c gate 253 -245 -252 0
-245 -253 0
-252 -253 0
245 252 253 0
c gate 254 76 108 0
76 -254 0
108 -254 0
-76 -108 254 0
c gate 255 114 254 0
114 -255 0
254 -255 0
-114 -254 255 0
c gate 256 252 255 0
252 -256 0
255 -256 0
-252 -255 256 0
c gate 257 -253 -256 0
-253 -257 0
-256 -257 0
253 256 257 0
c gate 258 -15 31 0
-15 -258 0
31 -258 0
15 -31 258 0
c gate 259 -11 27 0
-11 -259 0
27 -259 0
11 -27 259 0
c gate 260 10 -26 0
10 -260 0
-26 -260 0
-10 26 260 0
c gate 261 11 -27 0
11 -261 0
-27 -261 0
-11 27 261 0
c gate 262 -260 -261 0
-260 -262 0
-261 -262 0
260 261 262 0
c gate 263 -35 251 0
-35 -263 0
251 -263 0
35 -251 263 0
c gate 264 -107 -246 0
-107 -264 0
-246 -264 0
107 246 264 0
c gate 265 -263 264 0
-263 -265 0
264 -265 0
263 -264 265 0
c gate 266 -106 -265 0
-106 -266 0
-265 -266 0
106 265 266 0
c gate 267 -112 -266 0
-112 -267 0
-266 -267 0
112 266 267 0
c gate 268 -75 -113 0
-75 -268 0
-113 -268 0
75 113 268 0
c gate 269 -267 268 0
-267 -269 0
268 -269 0
267 -268 269 0
c gate 270 -74 -269 0
-74 -270 0
-269 -270 0
74 269 270 0
c gate 271 -119 -270 0
-119 -271 0
-270 -271 0
119 270 271 0
c gate 272 9 -25 0
9 -272 0
-25 -272 0
-9 25 272 0
c gate 273 -120 -272 0
-120 -273 0
-272 -273 0
120 272 273 0
c gate 274 -271 273 0
-271 -274 0
273 -274 0
271 -273 274 0
c gate 275 -10 26 0
-10 -275 0
26 -275 0
10 -26 275 0
c gate 276 -9 25 0
-9 -276 0
25 -276 0
9 -25 276 0
c gate 277 -275 -276 0
-275 -277 0
-276 -277 0
275 276 277 0
c gate 278 -274 277 0
-274 -278 0
277 -278 0
274 -277 278 0
c gate 279 262 -278 0
262 -279 0
-278 -279 0
-262 278 279 0
c gate 280 -259 -279 0
-259 -280 0
-279 -280 0
259 279 280 0
c gate 281 262 273 0
262 -281 0
273 -281 0
-262 -273 281 0
c gate 282 256 281 0
256 -282 0
281 -282 0
-256 -281 282 0
c gate 283 -61 -282 0
-61 -283 0
-282 -283 0
61 282 283 0
c gate 284 280 283 0
280 -284 0
283 -284 0
-280 -283 284 0
c gate 285 -62 -230 0
-62 -285 0
-230 -285 0
62 230 285 0
c gate 286 -284 285 0
-284 -286 0
285 -286 0
284 -285 286 0
c gate 287 -229 -286 0
-229 -287 0
-286 -287 0
229 286 287 0
c gate 288 -226 -287 0
-226 -288 0
-287 -288 0
226 287 288 0
c gate 289 -225 -288 0
-225 -289 0
-288 -289 0
225 288 289 0
c gate 290 15 -31 0
15 -290 0
-31 -290 0
-15 31 290 0
c gate 291 -289 -290 0
-289 -291 0
-290 -291 0
289 290 291 0
c gate 292 -258 -291 0
-258 -292 0
-291 -292 0
258 291 292 0
c gate 293 96 -292 0
96 -293 0
-292 -293 0
-96 292 293 0
c gate 294 -62 -280 0
-62 -294 0
-280 -294 0
62 280 294 0
c gate 295 -61 -229 0
-61 -295 0
-229 -295 0
61 229 295 0
c gate 296 -294 295 0
-294 -296 0
295 -296 0
294 -295 296 0
c gate 297 -230 -296 0
-230 -297 0
-296 -297 0
230 296 297 0
c gate 298 -225 -297 0
-225 -298 0
-297 -298 0
225 297 298 0
c gate 299 -226 -298 0
-226 -299 0
-298 -299 0
226 298 299 0
c gate 300 -258 -299 0
-258 -300 0
-299 -300 0
258 299 300 0
c gate 301 -290 -300 0
-290 -301 0
-300 -301 0
290 300 301 0
c gate 302 96 301 0
96 -302 0
301 -302 0
-96 -301 302 0
c gate 303 291 300 0
291 -303 0
300 -303 0
-291 -300 303 0
c gate 304 -302 -303 0
-302 -304 0
-303 -304 0
302 303 304 0
c gate 305 -293 -304 0
-293 -305 0
-304 -305 0
293 304 305 0
c gate 306 228 -289 0
228 -306 0
-289 -306 0
-228 289 306 0
c gate 307 -299 306 0
-299 -307 0
306 -307 0
299 -306 307 0
c gate 308 -228 289 0
-228 -308 0
289 -308 0
228 -289 308 0
c gate 309 299 308 0
299 -309 0
308 -309 0
-299 -308 309 0
c gate 310 -81 -85 0
-81 -310 0
-85 -310 0
81 85 310 0
c gate 311 -89 121 0
-89 -311 0
121 -311 0
89 -121 311 0
c gate 312 310 311 0
310 -312 0
311 -312 0
-310 -311 312 0
c gate 313 -270 -312 0
-270 -313 0
-312 -313 0
270 312 313 0
c gate 314 63 231 0
63 -314 0
231 -314 0
-63 -231 314 0
c gate 315 281 -314 0
281 -315 0
-314 -315 0
-281 314 315 0
c gate 316 280 315 0
280 -316 0
315 -316 0
-280 -315 316 0
c gate 317 -313 -316 0
-313 -317 0
-316 -317 0
313 316 317 0
c gate 318 256 -317 0
256 -318 0
-317 -318 0
-256 317 318 0
c gate 319 -227 -287 0
-227 -319 0
-287 -319 0
227 287 319 0
c gate 320 -297 319 0
-297 -320 0
319 -320 0
297 -319 320 0
c gate 321 -318 -320 0
-318 -321 0
-320 -321 0
318 320 321 0
c gate 322 -309 321 0
-309 -322 0
321 -322 0
309 -321 322 0
c gate 323 -307 322 0
-307 -323 0
322 -323 0
307 -322 323 0
c gate 324 -305 323 0
-305 -324 0
323 -324 0
305 -323 324 0
c gate 325 -257 324 0
-257 -325 0
324 -325 0
257 -324 325 0
c gate 326 44 -325 0
44 -326 0
-325 -326 0
-44 325 326 0
c gate 327 -39 -326 0
-39 -327 0
-326 -327 0
39 326 327 0
c gate 328 -46 325 0
-46 -328 0
325 -328 0
46 -325 328 0
c gate 329 39 -328 0
39 -329 0
-328 -329 0
-39 328 329 0
c gate 330 -327 -329 0
-327 -330 0
-329 -330 0
327 329 330 0
c gate 331 59 330 0
59 -331 0
330 -331 0
-59 -330 331 0
c gate 332 -59 -330 0
-59 -332 0
-330 -332 0
59 330 332 0
c gate 333 -331 -332 0
-331 -333 0
-332 -333 0
331 332 333 0
c PO
-333 0
